1 3 100 285123.17
1 3 200 295227.17
1 3 300 315975.30
2 3 100 422449.86
2 3 200 438175.08
2 3 300 431784.46
3 3 100 385162.43
3 3 200 419224.56
3 3 300 402706.12
4 3 100 346098.22
4 3 200 340574.08
4 3 300 335214.40
5 3 100 292151.75
5 3 200 264599.94
5 3 300 264741.37
